width,height
25,25
9,8
3,12
10,10
8,21
1,24
2,2
5,15
4,19
2,17
10,19
2,18
7,5
4,13
5,23
6,8
6,21
4,11
3,16
4,4
7,14
5,25
10,11
2,4
9,15
1,11
4,14
9,8
4,5
2,13
5,20
7,6
5,20
3,20
5,25
4,18
10,10
1,16
3,14
1,2
4,18
7,25
5,21
1,16
8,18
8,7
5,8
8,16
8,23
10,2
6,14
2,11
5,2
1,12
8,12
4,7
1,6
5,16
10,11
6,2
5,13
3,7
5,10
1,3
8,2
1,14
5,10
1,10
5,19
10,23
7,24
5,10
7,14
3,23
4,25
5,12
4,5
3,14
8,17
4,9
5,11
5,1
4,8
2,15
1,4
9,15
5,15
6,23
6,2
8,25
3,20
7,14
3,22
9,5
9,4
2,25
1,8
9,16
8,18
4,8
1,24
